p cnf 33 85
a 26 19 0
e 1 2 3 4 5 6 7 8 9 10 11 12 13 14 15 16 17 18 20 21 22 23 24 25 27 28 29 30 31 32 33 0
-3 -1 0
-3 -2 0
1 2 3 0
-4 5 -6 0
4 -5 -6 0
-4 -5 6 0
4 5 6 0
8 -7 0
8 1 0
7 -1 -8 0
-9 -6 0
-9 -8 0
6 8 9 0
12 10 0
12 -11 0
-10 11 -12 0
14 12 0
14 13 0
-12 -13 -14 0
-15 -9 0
-15 -14 0
9 14 15 0
17 11 0
17 -8 0
-11 8 -17 0
-18 -16 0
-18 17 0
16 -17 18 0
-19 -13 0
-19 -13 0
13 19 0
-20 19 0
-20 -5 0
-19 5 20 0
17 -20 -21 0
-17 20 -21 0
17 20 21 0
-17 -20 21 0
22 -18 0
22 -21 0
18 21 -22 0
-24 -10 0
-24 23 0
10 -23 24 0
25 -11 0
25 -1 0
11 1 -25 0
24 25 -26 0
-24 -25 -26 0
24 -25 26 0
-24 25 26 0
-4 10 -27 0
4 -10 -27 0
-4 -10 27 0
4 10 27 0
1 -8 -28 0
-1 8 -28 0
1 8 28 0
-1 -8 28 0
27 -28 -29 0
-27 28 -29 0
27 28 29 0
-27 -28 29 0
30 26 0
30 -29 0
-26 29 -30 0
-31 22 0
-31 30 0
-22 -30 31 0
-15 -31 -32 0
15 31 -32 0
-15 31 32 0
15 -31 32 0
-33 -3 0
-33 32 0
3 -32 33 0
1 -6 -26 22 0
-16 21 -24 30 6 27 0
21 -16 -7 30 -18 26 0
29 4 15 2 -21 0
-20 -27 -30 9 2 -3 0
6 -28 22 -7 16 12 0
1 17 23 0
-1 5 -4 0
33 0
